(set-logic QF_S)
(declare-fun V21 () String )
(declare-fun V6 () String )
(declare-fun V12 () String )
(declare-fun V16 () String )
(declare-fun V15 () String )
(declare-fun V10 () String )
(declare-fun V11 () String )
(declare-fun V17 () String )
(declare-fun V8 () String )
(declare-fun V13 () String )
(declare-fun V19 () String )
(declare-fun V18 () String )
(declare-fun V9 () String )
(declare-fun V14 () String )
(declare-fun V5 () String )
(declare-fun V20 () String )
(assert (= (str.++ (str.++ V17 V18 ) V19 ) (str.++ (str.++ V8 V9 ) V10 ) ) )
(assert (= (str.++ (str.++ V17 V18 ) V19 ) (str.++ (str.++ V11 " " ) V12 ) ) )
(assert (= (str.++ (str.++ V17 V18 ) V19 ) (str.++ (str.++ V20 " " ) V21 ) ) )
(assert (= (str.++ (str.++ V5 "\n" ) V6 ) (str.++ (str.++ V14 V15 ) V16 ) ) )
(assert (= (str.++ (str.++ V5 "\n" ) V6 ) (str.++ (str.++ (str.++ V17 V18 ) V19 ) V13 ) ) )
( check-sat )
